;; unsat

(declare-const x1 sl.list.loc)
(declare-const x2 sl.list.loc)
(declare-const x3 sl.list.loc)
(declare-const x4 sl.list.loc)
(declare-const x5 sl.list.loc)
(declare-const x6 sl.list.loc)
(declare-const x7 sl.list.loc)
(declare-const x8 sl.list.loc)
(declare-const x9 sl.list.loc)
(declare-const x10 sl.list.loc)
(declare-const x11 sl.list.loc)
(declare-const x12 sl.list.loc)
(declare-const x13 sl.list.loc)
(declare-const x14 sl.list.loc)
(declare-const x15 sl.list.loc)
(declare-const x16 sl.list.loc)
(declare-const x17 sl.list.loc)
(declare-const x18 sl.list.loc)
(declare-const x19 sl.list.loc)

(assert (sl.sepcon (sl.sepcon (sl.sepcon (sl.sepcon (sl.sepcon (sl.sepcon (sl.sepcon (sl.sepcon (sl.sepcon (sl.sepcon (sl.sepcon (sl.sepcon (sl.sepcon (sl.sepcon (sl.sepcon (sl.sepcon (sl.sepcon (sl.sepcon (sl.sepcon (sl.sepcon (sl.sepcon (sl.sepcon (sl.sepcon (sl.sepcon (sl.sepcon (sl.sepcon (sl.sepcon (sl.sepcon (sl.list.eq sl.list.null sl.list.null)
 (sl.list.neq x6 x9)
)
 (sl.list.neq x6 x17)
)
 (sl.list.neq x6 x12)
)
 (sl.list.neq x6 x14)
)
 (sl.list.neq x11 x17)
)
 (sl.list.neq x3 x10)
)
 (sl.list.neq x3 x19)
)
 (sl.list.neq x3 x16)
)
 (sl.list.neq x3 x5)
)
 (sl.list.neq x7 x18)
)
 (sl.list.neq x7 x9)
)
 (sl.list.neq x7 x15)
)
 (sl.list.neq x9 x10)
)
 (sl.list.neq x9 x12)
)
 (sl.list.neq x12 x17)
)
 (sl.list.neq x12 x14)
)
 (sl.list.neq x2 x11)
)
 (sl.list.neq x2 x10)
)
 (sl.list.neq x2 x9)
)
 (sl.list.neq x2 x5)
)
 (sl.list.neq x14 x17)
)
 (sl.list.neq x15 x18)
)
 (sl.list.neq x15 x17)
)
 (sl.list.neq x8 x15)
)
 (sl.list.neq x4 x14)
)
 (sl.list.neq x10 x17)
)
 (sl.list.neq x5 x8)
)
 (sl.sepcon (sl.sepcon (sl.sepcon (sl.sepcon (sl.sepcon (sl.sepcon (sl.sepcon (sl.sepcon (sl.sepcon (sl.sepcon (sl.sepcon (sl.sepcon (sl.sepcon (sl.sepcon (sl.sepcon (sl.sepcon (sl.sepcon (sl.sepcon (sl.list.seg x19 x2)
 (sl.list.seg x18 x13)
)
 (sl.list.seg x18 x11)
)
 (sl.list.seg x1 x14)
)
 (sl.list.seg x1 x13)
)
 (sl.list.seg x8 x19)
)
 (sl.list.seg x15 x17)
)
 (sl.list.seg x15 x16)
)
 (sl.list.seg x14 x18)
)
 (sl.list.seg x14 x11)
)
 (sl.list.seg x14 x8)
)
 (sl.list.seg x2 x10)
)
 (sl.list.seg x17 x5)
)
 (sl.list.seg x17 x19)
)
 (sl.list.seg x9 x3)
)
 (sl.list.seg x9 x4)
)
 (sl.list.seg x9 x8)
)
 (sl.list.seg x7 x16)
)
 (sl.list.seg x7 x1)
)
)
)

